c generated by sgen3tocnf
c nLits = 621
c actual nVars = 207
c Command: sgen3tocnf 70 26 0 0 210 3 1 0 /dev/null
p cnf 210 277
-139 -181 0
-139 -133 0
-181 -133 0
-46 -76 0
-46 -97 0
-76 -97 0
-19 -73 0
-19 -142 0
-73 -142 0
-199 -98 0
-199 -82 0
-98 -82 0
-16 -34 0
-16 -47 0
-34 -47 0
-112 -205 0
-112 -172 0
-205 -172 0
-193 -58 0
-193 -70 0
-58 -70 0
-61 -28 0
-61 -59 0
-28 -59 0
-88 -13 0
-88 -37 0
-13 -37 0
-40 -85 0
-40 -200 0
-85 -200 0
-25 -1 0
-25 -140 0
-1 -140 0
-196 -148 0
-196 -169 0
-148 -169 0
-64 -71 0
-64 -62 0
-71 -62 0
-2 -115 0
-2 -35 0
-115 -35 0
-77 -10 0
-77 -103 0
-10 -103 0
-36 -145 0
-36 -127 0
-145 -127 0
-184 -100 0
-184 -154 0
-100 -154 0
-7 -55 0
-7 -146 0
-55 -146 0
-124 -49 0
-124 -56 0
-49 -56 0
-91 -201 0
-91 -4 0
-201 -4 0
-52 -5 0
-52 -14 0
-5 -14 0
-202 -106 0
-202 -11 0
-106 -11 0
-74 -178 0
-74 -89 0
-178 -89 0
-22 -48 0
-22 -116 0
-48 -116 0
-170 -23 0
-170 -179 0
-23 -179 0
-94 -134 0
-94 -113 0
-134 -113 0
-15 -171 0
-15 -187 0
-171 -187 0
-83 -63 0
-83 -191 0
-63 -191 0
-109 -192 0
-109 -206 0
-192 -206 0
-29 -110 0
-29 -149 0
-110 -149 0
-155 -203 0
-155 -121 0
-203 -121 0
-208 -141 0
-208 -107 0
-141 -107 0
-122 -173 0
-122 -50 0
-173 -50 0
-99 -136 0
-99 -151 0
-136 -151 0
-182 -8 0
-182 -157 0
-8 -157 0
-104 -65 0
-104 -101 0
-65 -101 0
-6 -130 0
-6 -204 0
-130 -204 0
-167 -41 0
-167 -30 0
-41 -30 0
-117 -17 0
-117 -111 0
-17 -111 0
-72 -128 0
-72 -183 0
-128 -183 0
-60 -156 0
-60 -24 0
-156 -24 0
-86 -143 0
-86 -44 0
-143 -44 0
-79 -92 0
-79 -31 0
-92 -31 0
-163 -38 0
-163 -160 0
-38 -160 0
-32 -105 0
-32 -197 0
-105 -197 0
-102 -20 0
-102 -125 0
-20 -125 0
-12 -123 0
-12 -194 0
-123 -194 0
-39 -33 0
-39 -42 0
-33 -42 0
-129 -90 0
-129 -18 0
-90 -18 0
-135 -195 0
-135 -67 0
-195 -67 0
-131 -198 0
-131 -164 0
-198 -164 0
-51 -158 0
-51 -175 0
-158 -175 0
-161 -26 0
-161 -75 0
-26 -75 0
-118 -114 0
-118 -21 0
-114 -21 0
-57 -162 0
-57 -119 0
-162 -119 0
-108 -188 0
-108 -3 0
-188 -3 0
-144 -165 0
-144 -80 0
-165 -80 0
-147 -53 0
-147 -95 0
-53 -95 0
-207 -152 0
-207 -87 0
-152 -87 0
-45 -96 0
-45 -9 0
-96 -9 0
-150 -126 0
-150 -132 0
-126 -132 0
-153 -120 0
-153 -27 0
-120 -27 0
-137 -84 0
-137 -66 0
-84 -66 0
-189 -176 0
-189 -54 0
-176 -54 0
-68 -81 0
-68 -185 0
-81 -185 0
-177 -168 0
-177 -138 0
-168 -138 0
-159 -186 0
-159 -209 0
-186 -209 0
-180 -210 0
-180 -93 0
-210 -93 0
-174 -69 0
-174 -78 0
-69 -78 0
2 1 3 0
6 5 4 0
7 8 9 0
12 10 11 0
15 13 14 0
16 17 18 0
19 20 21 0
22 23 24 0
25 26 27 0
29 28 30 0
32 33 31 0
36 34 35 0
39 38 37 0
40 41 42 0
45 44 0
46 48 47 0
51 49 50 0
52 53 54 0
57 55 56 0
60 58 59 0
61 63 62 0
64 65 66 0
68 69 67 0
72 71 70 0
74 73 75 0
77 76 78 0
79 81 80 0
83 84 82 0
86 85 87 0
88 90 89 0
91 92 93 0
94 96 95 0
99 98 97 0
102 100 101 0
104 105 103 0
108 106 107 0
109 110 111 0
112 114 113 0
117 115 116 0
118 120 119 0
122 123 121 0
124 126 125 0
129 128 127 0
131 130 132 0
135 134 133 0
137 136 138 0
139 141 140 0
144 143 142 0
147 145 146 0
150 148 149 0
153 152 151 0
155 156 154 0
159 158 157 0
161 162 160 0
163 165 164 0
167 168 0
170 171 169 0
174 173 172 0
177 176 175 0
180 178 179 0
182 181 183 0
184 186 185 0
189 188 187 0
192 191 0
193 195 194 0
196 198 197 0
199 201 200 0
202 203 204 0
207 205 206 0
208 210 209 0
